200
[20,21,22,23,24,25,26,27,28,29,30,31,32,33,34,35,36,37,38,39,40,41,42,43,44,45,46,47,48,49,50,51,52,53,54,55,56,57,58,59,60,61,62,63,64,65,66,67,68,69,70,71,72,73,74,75,76,77,78,79,80,81,82,83,84,85,86,87,88,89,90,91,92,93,94,95,96,97,98,99,100,101,102,103,104,105,106,107,108,109,110,111,112,113,114,115,116,117,118,119,120,121,122,123,124,125,126,127,128,129,130,131,132,133,134,135,136,137,138,139,140]
[7,3,3,5,5,5,12,7,13,8,9,7,6,4,8,6,4,10,11,4,4,7,3,6,11,8,4,3,7,7,2,4,5,5,7,3,3,10,8,8,7,7,8,8,9,3,5,4,6,7,5,12,3,4,8,7,3,6,5,2,9,7,7,11,10,3,6,10,5,7,10,3,7,7,5,2,3,5,2,13,4,11,5,9,8,6,2,2,4,9,1,4,8,7,5,8,3,7,3,8,6,4,4,9,7,5,4,7,6,13,4,7,4,1,9,7,10,9,4,9,4]
